c generated by sgen3tocnf
c nLits = 621
c actual nVars = 207
c Command: sgen3tocnf 70 15 0 0 210 3 1 0 /dev/null
p cnf 210 277
-172 -184 0
-172 -37 0
-184 -37 0
-82 -208 0
-82 -124 0
-208 -124 0
-154 -127 0
-154 -25 0
-127 -25 0
-28 -70 0
-28 -205 0
-70 -205 0
-52 -73 0
-52 -112 0
-73 -112 0
-199 -1 0
-199 -100 0
-1 -100 0
-202 -109 0
-202 -160 0
-109 -160 0
-181 -22 0
-181 -64 0
-22 -64 0
-130 -193 0
-130 -182 0
-193 -182 0
-142 -169 0
-142 -91 0
-169 -91 0
-145 -187 0
-145 -166 0
-187 -166 0
-209 -16 0
-209 -71 0
-16 -71 0
-34 -94 0
-34 -4 0
-94 -4 0
-2 -178 0
-2 -103 0
-178 -103 0
-88 -146 0
-88 -106 0
-146 -106 0
-23 -46 0
-23 -163 0
-46 -163 0
-170 -49 0
-170 -31 0
-49 -31 0
-133 -136 0
-133 -3 0
-136 -3 0
-206 -101 0
-206 -55 0
-101 -55 0
-43 -97 0
-43 -58 0
-97 -58 0
-107 -151 0
-107 -50 0
-151 -50 0
-17 -79 0
-17 -24 0
-79 -24 0
-118 -157 0
-118 -29 0
-157 -29 0
-5 -104 0
-5 -47 0
-104 -47 0
-148 -61 0
-148 -18 0
-61 -18 0
-56 -183 0
-56 -40 0
-183 -40 0
-161 -134 0
-161 -173 0
-134 -173 0
-72 -26 0
-72 -98 0
-26 -98 0
-194 -53 0
-194 -137 0
-53 -137 0
-38 -162 0
-38 -139 0
-162 -139 0
-128 -207 0
-128 -44 0
-207 -44 0
-65 -85 0
-65 -115 0
-85 -115 0
-13 -35 0
-13 -76 0
-35 -76 0
-10 -190 0
-10 -158 0
-190 -158 0
-86 -167 0
-86 -62 0
-167 -62 0
-191 -59 0
-191 -36 0
-59 -36 0
-164 -116 0
-164 -89 0
-116 -89 0
-51 -45 0
-51 -87 0
-45 -87 0
-41 -149 0
-41 -119 0
-149 -119 0
-63 -66 0
-63 -67 0
-66 -67 0
-113 -83 0
-113 -171 0
-83 -171 0
-185 -140 0
-185 -11 0
-140 -11 0
-188 -12 0
-188 -121 0
-12 -121 0
-74 -131 0
-74 -110 0
-131 -110 0
-117 -174 0
-117 -210 0
-174 -210 0
-197 -6 0
-197 -54 0
-6 -54 0
-32 -92 0
-32 -84 0
-92 -84 0
-111 -14 0
-111 -135 0
-14 -135 0
-27 -108 0
-27 -186 0
-108 -186 0
-99 -120 0
-99 -152 0
-120 -152 0
-48 -125 0
-48 -147 0
-125 -147 0
-153 -203 0
-153 -7 0
-203 -7 0
-93 -68 0
-93 -150 0
-68 -150 0
-105 -165 0
-105 -132 0
-165 -132 0
-141 -30 0
-141 -204 0
-30 -204 0
-8 -200 0
-8 -129 0
-200 -129 0
-19 -114 0
-19 -198 0
-114 -198 0
-138 -122 0
-138 -80 0
-122 -80 0
-175 -57 0
-175 -143 0
-57 -143 0
-179 -33 0
-179 -192 0
-33 -192 0
-123 -90 0
-123 -20 0
-90 -20 0
-168 -42 0
-168 -15 0
-42 -15 0
-159 -77 0
-159 -176 0
-77 -176 0
-60 -177 0
-60 -75 0
-177 -75 0
-78 -156 0
-78 -201 0
-156 -201 0
-126 -39 0
-126 -195 0
-39 -195 0
-69 -144 0
-69 -96 0
-144 -96 0
-81 -21 0
-81 -189 0
-21 -189 0
-102 -9 0
-102 -180 0
-9 -180 0
2 1 3 0
5 6 4 0
8 9 7 0
10 12 11 0
13 14 15 0
17 16 18 0
19 21 20 0
23 22 24 0
27 26 25 0
28 30 29 0
32 33 31 0
34 35 36 0
38 39 37 0
41 42 40 0
43 45 44 0
48 46 47 0
51 49 50 0
52 53 54 0
56 57 55 0
60 59 58 0
63 61 62 0
65 66 64 0
69 68 67 0
72 70 71 0
74 73 75 0
78 77 76 0
81 79 80 0
82 83 84 0
86 85 87 0
88 90 89 0
93 92 91 0
94 96 0
99 97 98 0
102 101 100 0
105 104 103 0
107 108 106 0
111 109 110 0
113 114 112 0
117 116 115 0
118 120 119 0
123 122 121 0
126 125 124 0
128 127 129 0
130 131 132 0
133 134 135 0
138 136 137 0
141 140 139 0
142 144 143 0
145 146 147 0
148 149 150 0
153 151 152 0
154 156 0
159 157 158 0
161 162 160 0
164 165 163 0
168 167 166 0
170 169 171 0
172 174 173 0
175 177 176 0
179 178 180 0
181 183 182 0
185 184 186 0
188 187 189 0
191 190 192 0
194 193 195 0
197 198 0
199 200 201 0
202 203 204 0
206 207 205 0
209 208 210 0
